; benchmark generated from python API
(set-info :status unknown)
(declare-fun cell_1_1 () Int)
(declare-fun cell_1_5 () Int)
(declare-fun cell_1_6 () Int)
(declare-fun cell_2_7 () Int)
(declare-fun cell_2_8 () Int)
(declare-fun cell_2_9 () Int)
(declare-fun cell_3_2 () Int)
(declare-fun cell_3_3 () Int)
(declare-fun cell_3_4 () Int)
(declare-fun cell_4_1 () Int)
(declare-fun cell_4_5 () Int)
(declare-fun cell_5_8 () Int)
(declare-fun cell_5_9 () Int)
(declare-fun cell_6_2 () Int)
(declare-fun cell_6_6 () Int)
(declare-fun cell_7_4 () Int)
(declare-fun cell_7_7 () Int)
(declare-fun cell_8_4 () Int)
(declare-fun cell_8_7 () Int)
(declare-fun cell_9_1 () Int)
(declare-fun cell_9_3 () Int)
(declare-fun cell_2_1 () Int)
(declare-fun cell_3_1 () Int)
(declare-fun cell_5_1 () Int)
(declare-fun cell_6_1 () Int)
(declare-fun cell_7_1 () Int)
(declare-fun cell_8_1 () Int)
(declare-fun cell_1_2 () Int)
(declare-fun cell_2_2 () Int)
(declare-fun cell_4_2 () Int)
(declare-fun cell_5_2 () Int)
(declare-fun cell_7_2 () Int)
(declare-fun cell_8_2 () Int)
(declare-fun cell_9_2 () Int)
(declare-fun cell_1_3 () Int)
(declare-fun cell_2_3 () Int)
(declare-fun cell_4_3 () Int)
(declare-fun cell_5_3 () Int)
(declare-fun cell_6_3 () Int)
(declare-fun cell_7_3 () Int)
(declare-fun cell_8_3 () Int)
(declare-fun cell_1_4 () Int)
(declare-fun cell_2_4 () Int)
(declare-fun cell_4_4 () Int)
(declare-fun cell_5_4 () Int)
(declare-fun cell_6_4 () Int)
(declare-fun cell_9_4 () Int)
(declare-fun cell_2_5 () Int)
(declare-fun cell_3_5 () Int)
(declare-fun cell_5_5 () Int)
(declare-fun cell_6_5 () Int)
(declare-fun cell_7_5 () Int)
(declare-fun cell_8_5 () Int)
(declare-fun cell_9_5 () Int)
(declare-fun cell_2_6 () Int)
(declare-fun cell_3_6 () Int)
(declare-fun cell_4_6 () Int)
(declare-fun cell_5_6 () Int)
(declare-fun cell_7_6 () Int)
(declare-fun cell_8_6 () Int)
(declare-fun cell_9_6 () Int)
(declare-fun cell_1_7 () Int)
(declare-fun cell_3_7 () Int)
(declare-fun cell_4_7 () Int)
(declare-fun cell_5_7 () Int)
(declare-fun cell_6_7 () Int)
(declare-fun cell_9_7 () Int)
(declare-fun cell_1_8 () Int)
(declare-fun cell_3_8 () Int)
(declare-fun cell_4_8 () Int)
(declare-fun cell_6_8 () Int)
(declare-fun cell_7_8 () Int)
(declare-fun cell_8_8 () Int)
(declare-fun cell_9_8 () Int)
(declare-fun cell_1_9 () Int)
(declare-fun cell_3_9 () Int)
(declare-fun cell_4_9 () Int)
(declare-fun cell_6_9 () Int)
(declare-fun cell_7_9 () Int)
(declare-fun cell_8_9 () Int)
(declare-fun cell_9_9 () Int)
(assert
 (= cell_1_1 3))
(assert
 (= cell_1_5 1))
(assert
 (= cell_1_6 2))
(assert
 (= cell_2_7 3))
(assert
 (= cell_2_8 2))
(assert
 (= cell_2_9 1))
(assert
 (= cell_3_2 1))
(assert
 (= cell_3_3 2))
(assert
 (= cell_3_4 3))
(assert
 (= cell_4_1 1))
(assert
 (= cell_4_5 2))
(assert
 (= cell_5_8 1))
(assert
 (= cell_5_9 2))
(assert
 (= cell_6_2 2))
(assert
 (= cell_6_6 1))
(assert
 (= cell_7_4 2))
(assert
 (= cell_7_7 1))
(assert
 (= cell_8_4 1))
(assert
 (= cell_8_7 2))
(assert
 (= cell_9_1 2))
(assert
 (= cell_9_3 1))
(assert
 (let (($x2137 (= cell_1_1 3)))
 (or (= cell_1_1 1) (= cell_1_1 2) $x2137 (= cell_1_1 4) (= cell_1_1 5) (= cell_1_1 6) (= cell_1_1 7) (= cell_1_1 8) (= cell_1_1 9))))
(assert
 (let (($x1152 (= cell_2_1 9)))
 (let (($x64 (= cell_2_1 8)))
 (let (($x1058 (= cell_2_1 7)))
 (let (($x904 (= cell_2_1 6)))
 (let (($x2266 (= cell_2_1 5)))
 (let (($x6094 (= cell_2_1 4)))
 (let (($x691 (= cell_2_1 3)))
 (let (($x1394 (= cell_2_1 2)))
 (let (($x1605 (= cell_2_1 1)))
 (or $x1605 $x1394 $x691 $x6094 $x2266 $x904 $x1058 $x64 $x1152)))))))))))
(assert
 (let (($x115 (= cell_3_1 9)))
 (let (($x644 (= cell_3_1 8)))
 (let (($x1666 (= cell_3_1 7)))
 (let (($x2461 (= cell_3_1 6)))
 (let (($x574 (= cell_3_1 5)))
 (let (($x408 (= cell_3_1 4)))
 (let (($x950 (= cell_3_1 3)))
 (let (($x3309 (= cell_3_1 2)))
 (let (($x2236 (= cell_3_1 1)))
 (or $x2236 $x3309 $x950 $x408 $x574 $x2461 $x1666 $x644 $x115)))))))))))
(assert
 (let (($x6575 (= cell_4_1 1)))
 (or $x6575 (= cell_4_1 2) (= cell_4_1 3) (= cell_4_1 4) (= cell_4_1 5) (= cell_4_1 6) (= cell_4_1 7) (= cell_4_1 8) (= cell_4_1 9))))
(assert
 (let (($x2127 (= cell_5_1 9)))
 (let (($x176 (= cell_5_1 8)))
 (let (($x334 (= cell_5_1 7)))
 (let (($x836 (= cell_5_1 6)))
 (let (($x2286 (= cell_5_1 5)))
 (let (($x2416 (= cell_5_1 4)))
 (let (($x1179 (= cell_5_1 3)))
 (let (($x2707 (= cell_5_1 2)))
 (let (($x257 (= cell_5_1 1)))
 (or $x257 $x2707 $x1179 $x2416 $x2286 $x836 $x334 $x176 $x2127)))))))))))
(assert
 (let (($x417 (= cell_6_1 9)))
 (let (($x2519 (= cell_6_1 8)))
 (let (($x2881 (= cell_6_1 7)))
 (let (($x1296 (= cell_6_1 6)))
 (let (($x131 (= cell_6_1 5)))
 (let (($x705 (= cell_6_1 4)))
 (let (($x766 (= cell_6_1 3)))
 (let (($x1155 (= cell_6_1 2)))
 (let (($x1817 (= cell_6_1 1)))
 (or $x1817 $x1155 $x766 $x705 $x131 $x1296 $x2881 $x2519 $x417)))))))))))
(assert
 (let (($x320 (= cell_7_1 9)))
 (let (($x580 (= cell_7_1 8)))
 (let (($x1176 (= cell_7_1 7)))
 (let (($x2278 (= cell_7_1 6)))
 (let (($x2352 (= cell_7_1 5)))
 (let (($x270 (= cell_7_1 4)))
 (let (($x3266 (= cell_7_1 3)))
 (let (($x757 (= cell_7_1 2)))
 (let (($x1610 (= cell_7_1 1)))
 (or $x1610 $x757 $x3266 $x270 $x2352 $x2278 $x1176 $x580 $x320)))))))))))
(assert
 (let (($x1111 (= cell_8_1 9)))
 (let (($x2560 (= cell_8_1 8)))
 (let (($x5153 (= cell_8_1 7)))
 (let (($x433 (= cell_8_1 6)))
 (let (($x1980 (= cell_8_1 5)))
 (let (($x170 (= cell_8_1 4)))
 (let (($x901 (= cell_8_1 3)))
 (let (($x2498 (= cell_8_1 2)))
 (let (($x1966 (= cell_8_1 1)))
 (or $x1966 $x2498 $x901 $x170 $x1980 $x433 $x5153 $x2560 $x1111)))))))))))
(assert
 (let (($x2745 (= cell_9_1 2)))
 (or (= cell_9_1 1) $x2745 (= cell_9_1 3) (= cell_9_1 4) (= cell_9_1 5) (= cell_9_1 6) (= cell_9_1 7) (= cell_9_1 8) (= cell_9_1 9))))
(assert
 (let (($x905 (= cell_1_2 9)))
 (let (($x1117 (= cell_1_2 8)))
 (let (($x1231 (= cell_1_2 7)))
 (let (($x2811 (= cell_1_2 6)))
 (let (($x3004 (= cell_1_2 5)))
 (let (($x269 (= cell_1_2 4)))
 (let (($x2499 (= cell_1_2 3)))
 (let (($x430 (= cell_1_2 2)))
 (let (($x1589 (= cell_1_2 1)))
 (or $x1589 $x430 $x2499 $x269 $x3004 $x2811 $x1231 $x1117 $x905)))))))))))
(assert
 (let (($x1413 (= cell_2_2 9)))
 (let (($x1708 (= cell_2_2 8)))
 (let (($x353 (= cell_2_2 7)))
 (let (($x1723 (= cell_2_2 6)))
 (let (($x1355 (= cell_2_2 5)))
 (let (($x474 (= cell_2_2 4)))
 (let (($x712 (= cell_2_2 3)))
 (let (($x891 (= cell_2_2 2)))
 (let (($x646 (= cell_2_2 1)))
 (or $x646 $x891 $x712 $x474 $x1355 $x1723 $x353 $x1708 $x1413)))))))))))
(assert
 (let (($x1834 (= cell_3_2 1)))
 (or $x1834 (= cell_3_2 2) (= cell_3_2 3) (= cell_3_2 4) (= cell_3_2 5) (= cell_3_2 6) (= cell_3_2 7) (= cell_3_2 8) (= cell_3_2 9))))
(assert
 (let (($x6045 (= cell_4_2 9)))
 (let (($x2725 (= cell_4_2 8)))
 (let (($x240 (= cell_4_2 7)))
 (let (($x3068 (= cell_4_2 6)))
 (let (($x5138 (= cell_4_2 5)))
 (let (($x2258 (= cell_4_2 4)))
 (let (($x1323 (= cell_4_2 3)))
 (let (($x2784 (= cell_4_2 2)))
 (let (($x163 (= cell_4_2 1)))
 (or $x163 $x2784 $x1323 $x2258 $x5138 $x3068 $x240 $x2725 $x6045)))))))))))
(assert
 (let (($x5854 (= cell_5_2 9)))
 (let (($x1043 (= cell_5_2 8)))
 (let (($x839 (= cell_5_2 7)))
 (let (($x1874 (= cell_5_2 6)))
 (let (($x866 (= cell_5_2 5)))
 (let (($x3157 (= cell_5_2 4)))
 (let (($x2532 (= cell_5_2 3)))
 (let (($x479 (= cell_5_2 2)))
 (let (($x2074 (= cell_5_2 1)))
 (or $x2074 $x479 $x2532 $x3157 $x866 $x1874 $x839 $x1043 $x5854)))))))))))
(assert
 (let (($x3374 (= cell_6_2 2)))
 (or (= cell_6_2 1) $x3374 (= cell_6_2 3) (= cell_6_2 4) (= cell_6_2 5) (= cell_6_2 6) (= cell_6_2 7) (= cell_6_2 8) (= cell_6_2 9))))
(assert
 (let (($x1083 (= cell_7_2 9)))
 (let (($x2599 (= cell_7_2 8)))
 (let (($x48 (= cell_7_2 7)))
 (let (($x1721 (= cell_7_2 6)))
 (let (($x1791 (= cell_7_2 5)))
 (let (($x1959 (= cell_7_2 4)))
 (let (($x746 (= cell_7_2 3)))
 (let (($x2644 (= cell_7_2 2)))
 (let (($x867 (= cell_7_2 1)))
 (or $x867 $x2644 $x746 $x1959 $x1791 $x1721 $x48 $x2599 $x1083)))))))))))
(assert
 (let (($x82 (= cell_8_2 9)))
 (let (($x1658 (= cell_8_2 8)))
 (let (($x1051 (= cell_8_2 7)))
 (let (($x3302 (= cell_8_2 6)))
 (let (($x444 (= cell_8_2 5)))
 (let (($x793 (= cell_8_2 4)))
 (let (($x884 (= cell_8_2 3)))
 (let (($x1192 (= cell_8_2 2)))
 (let (($x1420 (= cell_8_2 1)))
 (or $x1420 $x1192 $x884 $x793 $x444 $x3302 $x1051 $x1658 $x82)))))))))))
(assert
 (let (($x2051 (= cell_9_2 9)))
 (let (($x2665 (= cell_9_2 8)))
 (let (($x2887 (= cell_9_2 7)))
 (let (($x1797 (= cell_9_2 6)))
 (let (($x2166 (= cell_9_2 5)))
 (let (($x1835 (= cell_9_2 4)))
 (let (($x1016 (= cell_9_2 3)))
 (let (($x2351 (= cell_9_2 2)))
 (let (($x944 (= cell_9_2 1)))
 (or $x944 $x2351 $x1016 $x1835 $x2166 $x1797 $x2887 $x2665 $x2051)))))))))))
(assert
 (let (($x2905 (= cell_1_3 9)))
 (let (($x385 (= cell_1_3 8)))
 (let (($x2199 (= cell_1_3 7)))
 (let (($x2101 (= cell_1_3 6)))
 (let (($x3289 (= cell_1_3 5)))
 (let (($x1349 (= cell_1_3 4)))
 (let (($x1113 (= cell_1_3 3)))
 (let (($x2076 (= cell_1_3 2)))
 (let (($x3022 (= cell_1_3 1)))
 (or $x3022 $x2076 $x1113 $x1349 $x3289 $x2101 $x2199 $x385 $x2905)))))))))))
(assert
 (let (($x1388 (= cell_2_3 9)))
 (let (($x825 (= cell_2_3 8)))
 (let (($x2923 (= cell_2_3 7)))
 (let (($x1882 (= cell_2_3 6)))
 (let (($x3260 (= cell_2_3 5)))
 (let (($x6142 (= cell_2_3 4)))
 (let (($x3237 (= cell_2_3 3)))
 (let (($x2068 (= cell_2_3 2)))
 (let (($x2023 (= cell_2_3 1)))
 (or $x2023 $x2068 $x3237 $x6142 $x3260 $x1882 $x2923 $x825 $x1388)))))))))))
(assert
 (let (($x3435 (= cell_3_3 2)))
 (or (= cell_3_3 1) $x3435 (= cell_3_3 3) (= cell_3_3 4) (= cell_3_3 5) (= cell_3_3 6) (= cell_3_3 7) (= cell_3_3 8) (= cell_3_3 9))))
(assert
 (let (($x2379 (= cell_4_3 9)))
 (let (($x504 (= cell_4_3 8)))
 (let (($x2012 (= cell_4_3 7)))
 (let (($x795 (= cell_4_3 6)))
 (let (($x2706 (= cell_4_3 5)))
 (let (($x2054 (= cell_4_3 4)))
 (let (($x3199 (= cell_4_3 3)))
 (let (($x2331 (= cell_4_3 2)))
 (let (($x2738 (= cell_4_3 1)))
 (or $x2738 $x2331 $x3199 $x2054 $x2706 $x795 $x2012 $x504 $x2379)))))))))))
(assert
 (let (($x2939 (= cell_5_3 9)))
 (let (($x2608 (= cell_5_3 8)))
 (let (($x2535 (= cell_5_3 7)))
 (let (($x6292 (= cell_5_3 6)))
 (let (($x1005 (= cell_5_3 5)))
 (let (($x186 (= cell_5_3 4)))
 (let (($x2112 (= cell_5_3 3)))
 (let (($x910 (= cell_5_3 2)))
 (let (($x158 (= cell_5_3 1)))
 (or $x158 $x910 $x2112 $x186 $x1005 $x6292 $x2535 $x2608 $x2939)))))))))))
(assert
 (let (($x160 (= cell_6_3 9)))
 (let (($x2250 (= cell_6_3 8)))
 (let (($x770 (= cell_6_3 7)))
 (let (($x3264 (= cell_6_3 6)))
 (let (($x1921 (= cell_6_3 5)))
 (let (($x6339 (= cell_6_3 4)))
 (let (($x6378 (= cell_6_3 3)))
 (let (($x2911 (= cell_6_3 2)))
 (let (($x6584 (= cell_6_3 1)))
 (or $x6584 $x2911 $x6378 $x6339 $x1921 $x3264 $x770 $x2250 $x160)))))))))))
(assert
 (let (($x3424 (= cell_7_3 9)))
 (let (($x1957 (= cell_7_3 8)))
 (let (($x1477 (= cell_7_3 7)))
 (let (($x2906 (= cell_7_3 6)))
 (let (($x427 (= cell_7_3 5)))
 (let (($x3305 (= cell_7_3 4)))
 (let (($x301 (= cell_7_3 3)))
 (let (($x1353 (= cell_7_3 2)))
 (let (($x203 (= cell_7_3 1)))
 (or $x203 $x1353 $x301 $x3305 $x427 $x2906 $x1477 $x1957 $x3424)))))))))))
(assert
 (let (($x287 (= cell_8_3 9)))
 (let (($x1381 (= cell_8_3 8)))
 (let (($x2480 (= cell_8_3 7)))
 (let (($x962 (= cell_8_3 6)))
 (let (($x3359 (= cell_8_3 5)))
 (let (($x6426 (= cell_8_3 4)))
 (let (($x1364 (= cell_8_3 3)))
 (let (($x2060 (= cell_8_3 2)))
 (let (($x675 (= cell_8_3 1)))
 (or $x675 $x2060 $x1364 $x6426 $x3359 $x962 $x2480 $x1381 $x287)))))))))))
(assert
 (let (($x5164 (= cell_9_3 1)))
 (or $x5164 (= cell_9_3 2) (= cell_9_3 3) (= cell_9_3 4) (= cell_9_3 5) (= cell_9_3 6) (= cell_9_3 7) (= cell_9_3 8) (= cell_9_3 9))))
(assert
 (let (($x302 (= cell_1_4 9)))
 (let (($x1031 (= cell_1_4 8)))
 (let (($x559 (= cell_1_4 7)))
 (let (($x1528 (= cell_1_4 6)))
 (let (($x1059 (= cell_1_4 5)))
 (let (($x2792 (= cell_1_4 4)))
 (let (($x438 (= cell_1_4 3)))
 (let (($x1259 (= cell_1_4 2)))
 (let (($x1305 (= cell_1_4 1)))
 (or $x1305 $x1259 $x438 $x2792 $x1059 $x1528 $x559 $x1031 $x302)))))))))))
(assert
 (let (($x234 (= cell_2_4 9)))
 (let (($x2588 (= cell_2_4 8)))
 (let (($x1602 (= cell_2_4 7)))
 (let (($x252 (= cell_2_4 6)))
 (let (($x528 (= cell_2_4 5)))
 (let (($x1020 (= cell_2_4 4)))
 (let (($x2944 (= cell_2_4 3)))
 (let (($x223 (= cell_2_4 2)))
 (let (($x6175 (= cell_2_4 1)))
 (or $x6175 $x223 $x2944 $x1020 $x528 $x252 $x1602 $x2588 $x234)))))))))))
(assert
 (let (($x2428 (= cell_3_4 3)))
 (or (= cell_3_4 1) (= cell_3_4 2) $x2428 (= cell_3_4 4) (= cell_3_4 5) (= cell_3_4 6) (= cell_3_4 7) (= cell_3_4 8) (= cell_3_4 9))))
(assert
 (let (($x5903 (= cell_4_4 9)))
 (let (($x2520 (= cell_4_4 8)))
 (let (($x1293 (= cell_4_4 7)))
 (let (($x94 (= cell_4_4 6)))
 (let (($x2796 (= cell_4_4 5)))
 (let (($x1858 (= cell_4_4 4)))
 (let (($x1297 (= cell_4_4 3)))
 (let (($x2659 (= cell_4_4 2)))
 (let (($x379 (= cell_4_4 1)))
 (or $x379 $x2659 $x1297 $x1858 $x2796 $x94 $x1293 $x2520 $x5903)))))))))))
(assert
 (let (($x989 (= cell_5_4 9)))
 (let (($x1911 (= cell_5_4 8)))
 (let (($x5152 (= cell_5_4 7)))
 (let (($x6544 (= cell_5_4 6)))
 (let (($x1474 (= cell_5_4 5)))
 (let (($x6120 (= cell_5_4 4)))
 (let (($x369 (= cell_5_4 3)))
 (let (($x2709 (= cell_5_4 2)))
 (let (($x2556 (= cell_5_4 1)))
 (or $x2556 $x2709 $x369 $x6120 $x1474 $x6544 $x5152 $x1911 $x989)))))))))))
(assert
 (let (($x679 (= cell_6_4 9)))
 (let (($x1752 (= cell_6_4 8)))
 (let (($x26 (= cell_6_4 7)))
 (let (($x61 (= cell_6_4 6)))
 (let (($x6559 (= cell_6_4 5)))
 (let (($x2442 (= cell_6_4 4)))
 (let (($x1071 (= cell_6_4 3)))
 (let (($x496 (= cell_6_4 2)))
 (let (($x2342 (= cell_6_4 1)))
 (or $x2342 $x496 $x1071 $x2442 $x6559 $x61 $x26 $x1752 $x679)))))))))))
(assert
 (let (($x3137 (= cell_7_4 2)))
 (or (= cell_7_4 1) $x3137 (= cell_7_4 3) (= cell_7_4 4) (= cell_7_4 5) (= cell_7_4 6) (= cell_7_4 7) (= cell_7_4 8) (= cell_7_4 9))))
(assert
 (let (($x2669 (= cell_8_4 1)))
 (or $x2669 (= cell_8_4 2) (= cell_8_4 3) (= cell_8_4 4) (= cell_8_4 5) (= cell_8_4 6) (= cell_8_4 7) (= cell_8_4 8) (= cell_8_4 9))))
(assert
 (let (($x2733 (= cell_9_4 3)))
 (let (($x101 (= cell_9_4 2)))
 (let (($x781 (= cell_9_4 1)))
 (or $x781 $x101 $x2733 (= cell_9_4 4) (= cell_9_4 5) (= cell_9_4 6) (= cell_9_4 7) (= cell_9_4 8) (= cell_9_4 9))))))
(assert
 (let (($x6532 (= cell_1_5 1)))
 (or $x6532 (= cell_1_5 2) (= cell_1_5 3) (= cell_1_5 4) (= cell_1_5 5) (= cell_1_5 6) (= cell_1_5 7) (= cell_1_5 8) (= cell_1_5 9))))
(assert
 (let (($x6570 (= cell_2_5 9)))
 (let (($x2358 (= cell_2_5 8)))
 (let (($x2108 (= cell_2_5 7)))
 (let (($x264 (= cell_2_5 6)))
 (let (($x1795 (= cell_2_5 5)))
 (let (($x1368 (= cell_2_5 4)))
 (let (($x2394 (= cell_2_5 3)))
 (let (($x1963 (= cell_2_5 2)))
 (let (($x1970 (= cell_2_5 1)))
 (or $x1970 $x1963 $x2394 $x1368 $x1795 $x264 $x2108 $x2358 $x6570)))))))))))
(assert
 (let (($x2441 (= cell_3_5 9)))
 (let (($x1098 (= cell_3_5 8)))
 (let (($x454 (= cell_3_5 7)))
 (let (($x410 (= cell_3_5 6)))
 (let (($x1361 (= cell_3_5 5)))
 (let (($x2721 (= cell_3_5 4)))
 (let (($x233 (= cell_3_5 3)))
 (let (($x2696 (= cell_3_5 2)))
 (let (($x2481 (= cell_3_5 1)))
 (or $x2481 $x2696 $x233 $x2721 $x1361 $x410 $x454 $x1098 $x2441)))))))))))
(assert
 (let (($x30 (= cell_4_5 2)))
 (or (= cell_4_5 1) $x30 (= cell_4_5 3) (= cell_4_5 4) (= cell_4_5 5) (= cell_4_5 6) (= cell_4_5 7) (= cell_4_5 8) (= cell_4_5 9))))
(assert
 (let (($x834 (= cell_5_5 9)))
 (let (($x1512 (= cell_5_5 8)))
 (let (($x6145 (= cell_5_5 7)))
 (let (($x354 (= cell_5_5 6)))
 (let (($x3054 (= cell_5_5 5)))
 (let (($x2400 (= cell_5_5 4)))
 (let (($x1897 (= cell_5_5 3)))
 (let (($x2632 (= cell_5_5 2)))
 (let (($x411 (= cell_5_5 1)))
 (or $x411 $x2632 $x1897 $x2400 $x3054 $x354 $x6145 $x1512 $x834)))))))))))
(assert
 (let (($x1540 (= cell_6_5 9)))
 (let (($x247 (= cell_6_5 8)))
 (let (($x1816 (= cell_6_5 7)))
 (let (($x2785 (= cell_6_5 6)))
 (let (($x2904 (= cell_6_5 5)))
 (let (($x1048 (= cell_6_5 4)))
 (let (($x3075 (= cell_6_5 3)))
 (let (($x1523 (= cell_6_5 2)))
 (let (($x2552 (= cell_6_5 1)))
 (or $x2552 $x1523 $x3075 $x1048 $x2904 $x2785 $x1816 $x247 $x1540)))))))))))
(assert
 (let (($x1125 (= cell_7_5 9)))
 (let (($x931 (= cell_7_5 8)))
 (let (($x6577 (= cell_7_5 7)))
 (let (($x2290 (= cell_7_5 6)))
 (let (($x1772 (= cell_7_5 5)))
 (let (($x1854 (= cell_7_5 4)))
 (let (($x6215 (= cell_7_5 3)))
 (let (($x3344 (= cell_7_5 2)))
 (let (($x2505 (= cell_7_5 1)))
 (or $x2505 $x3344 $x6215 $x1854 $x1772 $x2290 $x6577 $x931 $x1125)))))))))))
(assert
 (let (($x1380 (= cell_8_5 9)))
 (let (($x2359 (= cell_8_5 8)))
 (let (($x615 (= cell_8_5 7)))
 (let (($x1046 (= cell_8_5 6)))
 (let (($x6210 (= cell_8_5 5)))
 (let (($x852 (= cell_8_5 4)))
 (let (($x5187 (= cell_8_5 3)))
 (let (($x481 (= cell_8_5 2)))
 (let (($x2791 (= cell_8_5 1)))
 (or $x2791 $x481 $x5187 $x852 $x6210 $x1046 $x615 $x2359 $x1380)))))))))))
(assert
 (let (($x589 (= cell_9_5 2)))
 (let (($x3323 (= cell_9_5 1)))
 (or $x3323 $x589 (= cell_9_5 3) (= cell_9_5 4) (= cell_9_5 5) (= cell_9_5 6) (= cell_9_5 7) (= cell_9_5 8) (= cell_9_5 9)))))
(assert
 (let (($x879 (= cell_1_6 2)))
 (or (= cell_1_6 1) $x879 (= cell_1_6 3) (= cell_1_6 4) (= cell_1_6 5) (= cell_1_6 6) (= cell_1_6 7) (= cell_1_6 8) (= cell_1_6 9))))
(assert
 (let (($x2516 (= cell_2_6 9)))
 (let (($x1193 (= cell_2_6 8)))
 (let (($x355 (= cell_2_6 7)))
 (let (($x3327 (= cell_2_6 6)))
 (let (($x1130 (= cell_2_6 5)))
 (let (($x2479 (= cell_2_6 4)))
 (let (($x111 (= cell_2_6 3)))
 (let (($x2832 (= cell_2_6 2)))
 (let (($x1472 (= cell_2_6 1)))
 (or $x1472 $x2832 $x111 $x2479 $x1130 $x3327 $x355 $x1193 $x2516)))))))))))
(assert
 (let (($x1082 (= cell_3_6 9)))
 (let (($x1103 (= cell_3_6 8)))
 (let (($x1033 (= cell_3_6 7)))
 (let (($x63 (= cell_3_6 6)))
 (let (($x2009 (= cell_3_6 5)))
 (let (($x5179 (= cell_3_6 4)))
 (let (($x137 (= cell_3_6 3)))
 (let (($x6368 (= cell_3_6 2)))
 (let (($x6125 (= cell_3_6 1)))
 (or $x6125 $x6368 $x137 $x5179 $x2009 $x63 $x1033 $x1103 $x1082)))))))))))
(assert
 (let (($x2750 (= cell_4_6 9)))
 (let (($x3064 (= cell_4_6 8)))
 (let (($x802 (= cell_4_6 7)))
 (let (($x1902 (= cell_4_6 6)))
 (let (($x606 (= cell_4_6 5)))
 (let (($x312 (= cell_4_6 4)))
 (let (($x747 (= cell_4_6 3)))
 (let (($x2077 (= cell_4_6 2)))
 (let (($x687 (= cell_4_6 1)))
 (or $x687 $x2077 $x747 $x312 $x606 $x1902 $x802 $x3064 $x2750)))))))))))
(assert
 (let (($x2484 (= cell_5_6 9)))
 (let (($x558 (= cell_5_6 8)))
 (let (($x2182 (= cell_5_6 7)))
 (let (($x2839 (= cell_5_6 6)))
 (let (($x1412 (= cell_5_6 5)))
 (let (($x6543 (= cell_5_6 4)))
 (let (($x2031 (= cell_5_6 3)))
 (let (($x2983 (= cell_5_6 2)))
 (let (($x3271 (= cell_5_6 1)))
 (or $x3271 $x2983 $x2031 $x6543 $x1412 $x2839 $x2182 $x558 $x2484)))))))))))
(assert
 (let (($x206 (= cell_6_6 1)))
 (or $x206 (= cell_6_6 2) (= cell_6_6 3) (= cell_6_6 4) (= cell_6_6 5) (= cell_6_6 6) (= cell_6_6 7) (= cell_6_6 8) (= cell_6_6 9))))
(assert
 (let (($x388 (= cell_7_6 9)))
 (let (($x2846 (= cell_7_6 8)))
 (let (($x2147 (= cell_7_6 7)))
 (let (($x1108 (= cell_7_6 6)))
 (let (($x5877 (= cell_7_6 5)))
 (let (($x3249 (= cell_7_6 4)))
 (let (($x2872 (= cell_7_6 3)))
 (let (($x2204 (= cell_7_6 2)))
 (let (($x1151 (= cell_7_6 1)))
 (or $x1151 $x2204 $x2872 $x3249 $x5877 $x1108 $x2147 $x2846 $x388)))))))))))
(assert
 (let (($x6429 (= cell_8_6 9)))
 (let (($x34 (= cell_8_6 8)))
 (let (($x539 (= cell_8_6 7)))
 (let (($x2082 (= cell_8_6 6)))
 (let (($x1558 (= cell_8_6 5)))
 (let (($x3475 (= cell_8_6 4)))
 (let (($x1433 (= cell_8_6 3)))
 (let (($x689 (= cell_8_6 2)))
 (let (($x323 (= cell_8_6 1)))
 (or $x323 $x689 $x1433 $x3475 $x1558 $x2082 $x539 $x34 $x6429)))))))))))
(assert
 (let (($x3459 (= cell_9_6 2)))
 (let (($x1249 (= cell_9_6 1)))
 (or $x1249 $x3459 (= cell_9_6 3) (= cell_9_6 4) (= cell_9_6 5) (= cell_9_6 6) (= cell_9_6 7) (= cell_9_6 8) (= cell_9_6 9)))))
(assert
 (let (($x1586 (= cell_1_7 9)))
 (let (($x1233 (= cell_1_7 8)))
 (let (($x540 (= cell_1_7 7)))
 (let (($x6131 (= cell_1_7 6)))
 (let (($x756 (= cell_1_7 5)))
 (let (($x2649 (= cell_1_7 4)))
 (let (($x990 (= cell_1_7 3)))
 (let (($x2085 (= cell_1_7 2)))
 (let (($x1519 (= cell_1_7 1)))
 (or $x1519 $x2085 $x990 $x2649 $x756 $x6131 $x540 $x1233 $x1586)))))))))))
(assert
 (let (($x2900 (= cell_2_7 3)))
 (or (= cell_2_7 1) (= cell_2_7 2) $x2900 (= cell_2_7 4) (= cell_2_7 5) (= cell_2_7 6) (= cell_2_7 7) (= cell_2_7 8) (= cell_2_7 9))))
(assert
 (let (($x2170 (= cell_3_7 9)))
 (let (($x889 (= cell_3_7 8)))
 (let (($x1976 (= cell_3_7 7)))
 (let (($x2320 (= cell_3_7 6)))
 (let (($x2688 (= cell_3_7 5)))
 (let (($x2521 (= cell_3_7 4)))
 (let (($x907 (= cell_3_7 3)))
 (let (($x6589 (= cell_3_7 2)))
 (let (($x485 (= cell_3_7 1)))
 (or $x485 $x6589 $x907 $x2521 $x2688 $x2320 $x1976 $x889 $x2170)))))))))))
(assert
 (let (($x2287 (= cell_4_7 9)))
 (let (($x2356 (= cell_4_7 8)))
 (let (($x1567 (= cell_4_7 7)))
 (let (($x2201 (= cell_4_7 6)))
 (let (($x2616 (= cell_4_7 5)))
 (let (($x1248 (= cell_4_7 4)))
 (let (($x258 (= cell_4_7 3)))
 (let (($x2150 (= cell_4_7 2)))
 (let (($x6572 (= cell_4_7 1)))
 (or $x6572 $x2150 $x258 $x1248 $x2616 $x2201 $x1567 $x2356 $x2287)))))))))))
(assert
 (let (($x1307 (= cell_5_7 9)))
 (let (($x521 (= cell_5_7 8)))
 (let (($x392 (= cell_5_7 7)))
 (let (($x2886 (= cell_5_7 6)))
 (let (($x3464 (= cell_5_7 5)))
 (let (($x2343 (= cell_5_7 4)))
 (let (($x6438 (= cell_5_7 3)))
 (let (($x2251 (= cell_5_7 2)))
 (let (($x3340 (= cell_5_7 1)))
 (or $x3340 $x2251 $x6438 $x2343 $x3464 $x2886 $x392 $x521 $x1307)))))))))))
(assert
 (let (($x1339 (= cell_6_7 9)))
 (let (($x554 (= cell_6_7 8)))
 (let (($x39 (= cell_6_7 7)))
 (let (($x6159 (= cell_6_7 6)))
 (let (($x16 (= cell_6_7 5)))
 (let (($x1717 (= cell_6_7 4)))
 (let (($x3124 (= cell_6_7 3)))
 (let (($x1749 (= cell_6_7 2)))
 (let (($x3284 (= cell_6_7 1)))
 (or $x3284 $x1749 $x3124 $x1717 $x16 $x6159 $x39 $x554 $x1339)))))))))))
(assert
 (let (($x656 (= cell_7_7 1)))
 (or $x656 (= cell_7_7 2) (= cell_7_7 3) (= cell_7_7 4) (= cell_7_7 5) (= cell_7_7 6) (= cell_7_7 7) (= cell_7_7 8) (= cell_7_7 9))))
(assert
 (let (($x1598 (= cell_8_7 2)))
 (or (= cell_8_7 1) $x1598 (= cell_8_7 3) (= cell_8_7 4) (= cell_8_7 5) (= cell_8_7 6) (= cell_8_7 7) (= cell_8_7 8) (= cell_8_7 9))))
(assert
 (let (($x2563 (= cell_9_7 3)))
 (let (($x2045 (= cell_9_7 2)))
 (let (($x6130 (= cell_9_7 1)))
 (or $x6130 $x2045 $x2563 (= cell_9_7 4) (= cell_9_7 5) (= cell_9_7 6) (= cell_9_7 7) (= cell_9_7 8) (= cell_9_7 9))))))
(assert
 (let (($x1171 (= cell_1_8 9)))
 (let (($x2367 (= cell_1_8 8)))
 (let (($x1250 (= cell_1_8 7)))
 (let (($x6322 (= cell_1_8 6)))
 (let (($x816 (= cell_1_8 5)))
 (let (($x805 (= cell_1_8 4)))
 (let (($x6382 (= cell_1_8 3)))
 (let (($x2187 (= cell_1_8 2)))
 (let (($x3444 (= cell_1_8 1)))
 (or $x3444 $x2187 $x6382 $x805 $x816 $x6322 $x1250 $x2367 $x1171)))))))))))
(assert
 (let (($x971 (= cell_2_8 2)))
 (or (= cell_2_8 1) $x971 (= cell_2_8 3) (= cell_2_8 4) (= cell_2_8 5) (= cell_2_8 6) (= cell_2_8 7) (= cell_2_8 8) (= cell_2_8 9))))
(assert
 (let (($x2979 (= cell_3_8 9)))
 (let (($x3151 (= cell_3_8 8)))
 (let (($x1068 (= cell_3_8 7)))
 (let (($x299 (= cell_3_8 6)))
 (let (($x1194 (= cell_3_8 5)))
 (let (($x1229 (= cell_3_8 4)))
 (let (($x520 (= cell_3_8 3)))
 (let (($x561 (= cell_3_8 2)))
 (let (($x1493 (= cell_3_8 1)))
 (or $x1493 $x561 $x520 $x1229 $x1194 $x299 $x1068 $x3151 $x2979)))))))))))
(assert
 (let (($x1978 (= cell_4_8 9)))
 (let (($x1386 (= cell_4_8 8)))
 (let (($x54 (= cell_4_8 7)))
 (let (($x2046 (= cell_4_8 6)))
 (let (($x613 (= cell_4_8 5)))
 (let (($x6095 (= cell_4_8 4)))
 (let (($x1838 (= cell_4_8 3)))
 (let (($x2404 (= cell_4_8 2)))
 (let (($x6306 (= cell_4_8 1)))
 (or $x6306 $x2404 $x1838 $x6095 $x613 $x2046 $x54 $x1386 $x1978)))))))))))
(assert
 (let (($x175 (= cell_5_8 1)))
 (or $x175 (= cell_5_8 2) (= cell_5_8 3) (= cell_5_8 4) (= cell_5_8 5) (= cell_5_8 6) (= cell_5_8 7) (= cell_5_8 8) (= cell_5_8 9))))
(assert
 (let (($x6167 (= cell_6_8 9)))
 (let (($x419 (= cell_6_8 8)))
 (let (($x491 (= cell_6_8 7)))
 (let (($x1317 (= cell_6_8 6)))
 (let (($x76 (= cell_6_8 5)))
 (let (($x1622 (= cell_6_8 4)))
 (let (($x1595 (= cell_6_8 3)))
 (let (($x1133 (= cell_6_8 2)))
 (let (($x3245 (= cell_6_8 1)))
 (or $x3245 $x1133 $x1595 $x1622 $x76 $x1317 $x491 $x419 $x6167)))))))))))
(assert
 (let (($x2075 (= cell_7_8 9)))
 (let (($x1698 (= cell_7_8 8)))
 (let (($x3128 (= cell_7_8 7)))
 (let (($x448 (= cell_7_8 6)))
 (let (($x1521 (= cell_7_8 5)))
 (let (($x274 (= cell_7_8 4)))
 (let (($x1450 (= cell_7_8 3)))
 (let (($x2749 (= cell_7_8 2)))
 (let (($x1614 (= cell_7_8 1)))
 (or $x1614 $x2749 $x1450 $x274 $x1521 $x448 $x3128 $x1698 $x2075)))))))))))
(assert
 (let (($x868 (= cell_8_8 2)))
 (let (($x820 (= cell_8_8 1)))
 (or $x820 $x868 (= cell_8_8 3) (= cell_8_8 4) (= cell_8_8 5) (= cell_8_8 6) (= cell_8_8 7) (= cell_8_8 8) (= cell_8_8 9)))))
(assert
 (let (($x2370 (= cell_9_8 2)))
 (let (($x2486 (= cell_9_8 1)))
 (or $x2486 $x2370 (= cell_9_8 3) (= cell_9_8 4) (= cell_9_8 5) (= cell_9_8 6) (= cell_9_8 7) (= cell_9_8 8) (= cell_9_8 9)))))
(assert
 (let (($x693 (= cell_1_9 9)))
 (let (($x1404 (= cell_1_9 8)))
 (let (($x1713 (= cell_1_9 7)))
 (let (($x6330 (= cell_1_9 6)))
 (let (($x2240 (= cell_1_9 5)))
 (let (($x2827 (= cell_1_9 4)))
 (let (($x1468 (= cell_1_9 3)))
 (let (($x395 (= cell_1_9 2)))
 (let (($x609 (= cell_1_9 1)))
 (or $x609 $x395 $x1468 $x2827 $x2240 $x6330 $x1713 $x1404 $x693)))))))))))
(assert
 (let (($x3250 (= cell_2_9 1)))
 (or $x3250 (= cell_2_9 2) (= cell_2_9 3) (= cell_2_9 4) (= cell_2_9 5) (= cell_2_9 6) (= cell_2_9 7) (= cell_2_9 8) (= cell_2_9 9))))
(assert
 (let (($x564 (= cell_3_9 9)))
 (let (($x3274 (= cell_3_9 8)))
 (let (($x5912 (= cell_3_9 7)))
 (let (($x657 (= cell_3_9 6)))
 (let (($x2221 (= cell_3_9 5)))
 (let (($x122 (= cell_3_9 4)))
 (let (($x2465 (= cell_3_9 3)))
 (let (($x6531 (= cell_3_9 2)))
 (let (($x2355 (= cell_3_9 1)))
 (or $x2355 $x6531 $x2465 $x122 $x2221 $x657 $x5912 $x3274 $x564)))))))))))
(assert
 (let (($x3236 (= cell_4_9 9)))
 (let (($x397 (= cell_4_9 8)))
 (let (($x965 (= cell_4_9 7)))
 (let (($x902 (= cell_4_9 6)))
 (let (($x2029 (= cell_4_9 5)))
 (let (($x1740 (= cell_4_9 4)))
 (let (($x2369 (= cell_4_9 3)))
 (let (($x6555 (= cell_4_9 2)))
 (let (($x488 (= cell_4_9 1)))
 (or $x488 $x6555 $x2369 $x1740 $x2029 $x902 $x965 $x397 $x3236)))))))))))
(assert
 (let (($x1072 (= cell_5_9 2)))
 (or (= cell_5_9 1) $x1072 (= cell_5_9 3) (= cell_5_9 4) (= cell_5_9 5) (= cell_5_9 6) (= cell_5_9 7) (= cell_5_9 8) (= cell_5_9 9))))
(assert
 (let (($x6459 (= cell_6_9 2)))
 (let (($x188 (= cell_6_9 1)))
 (or $x188 $x6459 (= cell_6_9 3) (= cell_6_9 4) (= cell_6_9 5) (= cell_6_9 6) (= cell_6_9 7) (= cell_6_9 8) (= cell_6_9 9)))))
(assert
 (let (($x2347 (= cell_7_9 9)))
 (let (($x6204 (= cell_7_9 8)))
 (let (($x1812 (= cell_7_9 7)))
 (let (($x2495 (= cell_7_9 6)))
 (let (($x6389 (= cell_7_9 5)))
 (let (($x972 (= cell_7_9 4)))
 (let (($x6445 (= cell_7_9 3)))
 (let (($x761 (= cell_7_9 2)))
 (let (($x494 (= cell_7_9 1)))
 (or $x494 $x761 $x6445 $x972 $x6389 $x2495 $x1812 $x6204 $x2347)))))))))))
(assert
 (let (($x1292 (= cell_8_9 3)))
 (let (($x2869 (= cell_8_9 2)))
 (let (($x2375 (= cell_8_9 1)))
 (or $x2375 $x2869 $x1292 (= cell_8_9 4) (= cell_8_9 5) (= cell_8_9 6) (= cell_8_9 7) (= cell_8_9 8) (= cell_8_9 9))))))
(assert
 (let (($x1832 (= cell_9_9 2)))
 (let (($x937 (= cell_9_9 1)))
 (or $x937 $x1832 (= cell_9_9 3) (= cell_9_9 4) (= cell_9_9 5) (= cell_9_9 6) (= cell_9_9 7) (= cell_9_9 8) (= cell_9_9 9)))))
(assert
 (and (distinct cell_1_1 cell_1_2 cell_1_3 cell_1_4 cell_1_5 cell_1_6 cell_1_7 cell_1_8 cell_1_9) true))
(assert
 (and (distinct cell_2_1 cell_2_2 cell_2_3 cell_2_4 cell_2_5 cell_2_6 cell_2_7 cell_2_8 cell_2_9) true))
(assert
 (and (distinct cell_3_1 cell_3_2 cell_3_3 cell_3_4 cell_3_5 cell_3_6 cell_3_7 cell_3_8 cell_3_9) true))
(assert
 (and (distinct cell_4_1 cell_4_2 cell_4_3 cell_4_4 cell_4_5 cell_4_6 cell_4_7 cell_4_8 cell_4_9) true))
(assert
 (and (distinct cell_5_1 cell_5_2 cell_5_3 cell_5_4 cell_5_5 cell_5_6 cell_5_7 cell_5_8 cell_5_9) true))
(assert
 (and (distinct cell_6_1 cell_6_2 cell_6_3 cell_6_4 cell_6_5 cell_6_6 cell_6_7 cell_6_8 cell_6_9) true))
(assert
 (and (distinct cell_7_1 cell_7_2 cell_7_3 cell_7_4 cell_7_5 cell_7_6 cell_7_7 cell_7_8 cell_7_9) true))
(assert
 (and (distinct cell_8_1 cell_8_2 cell_8_3 cell_8_4 cell_8_5 cell_8_6 cell_8_7 cell_8_8 cell_8_9) true))
(assert
 (and (distinct cell_9_1 cell_9_2 cell_9_3 cell_9_4 cell_9_5 cell_9_6 cell_9_7 cell_9_8 cell_9_9) true))
(assert
 (and (distinct cell_1_1 cell_2_1 cell_3_1 cell_4_1 cell_5_1 cell_6_1 cell_7_1 cell_8_1 cell_9_1) true))
(assert
 (and (distinct cell_1_2 cell_2_2 cell_3_2 cell_4_2 cell_5_2 cell_6_2 cell_7_2 cell_8_2 cell_9_2) true))
(assert
 (and (distinct cell_1_3 cell_2_3 cell_3_3 cell_4_3 cell_5_3 cell_6_3 cell_7_3 cell_8_3 cell_9_3) true))
(assert
 (and (distinct cell_1_4 cell_2_4 cell_3_4 cell_4_4 cell_5_4 cell_6_4 cell_7_4 cell_8_4 cell_9_4) true))
(assert
 (and (distinct cell_1_5 cell_2_5 cell_3_5 cell_4_5 cell_5_5 cell_6_5 cell_7_5 cell_8_5 cell_9_5) true))
(assert
 (and (distinct cell_1_6 cell_2_6 cell_3_6 cell_4_6 cell_5_6 cell_6_6 cell_7_6 cell_8_6 cell_9_6) true))
(assert
 (and (distinct cell_1_7 cell_2_7 cell_3_7 cell_4_7 cell_5_7 cell_6_7 cell_7_7 cell_8_7 cell_9_7) true))
(assert
 (and (distinct cell_1_8 cell_2_8 cell_3_8 cell_4_8 cell_5_8 cell_6_8 cell_7_8 cell_8_8 cell_9_8) true))
(assert
 (and (distinct cell_1_9 cell_2_9 cell_3_9 cell_4_9 cell_5_9 cell_6_9 cell_7_9 cell_8_9 cell_9_9) true))
(assert
 (and (distinct cell_1_1 cell_1_2 cell_1_3 cell_2_1 cell_2_2 cell_2_3 cell_3_1 cell_3_2 cell_3_3) true))
(assert
 (and (distinct cell_1_4 cell_1_5 cell_1_6 cell_2_4 cell_2_5 cell_2_6 cell_3_4 cell_3_5 cell_3_6) true))
(assert
 (and (distinct cell_1_7 cell_1_8 cell_1_9 cell_2_7 cell_2_8 cell_2_9 cell_3_7 cell_3_8 cell_3_9) true))
(assert
 (and (distinct cell_4_1 cell_4_2 cell_4_3 cell_5_1 cell_5_2 cell_5_3 cell_6_1 cell_6_2 cell_6_3) true))
(assert
 (and (distinct cell_4_4 cell_4_5 cell_4_6 cell_5_4 cell_5_5 cell_5_6 cell_6_4 cell_6_5 cell_6_6) true))
(assert
 (and (distinct cell_4_7 cell_4_8 cell_4_9 cell_5_7 cell_5_8 cell_5_9 cell_6_7 cell_6_8 cell_6_9) true))
(assert
 (and (distinct cell_7_1 cell_7_2 cell_7_3 cell_8_1 cell_8_2 cell_8_3 cell_9_1 cell_9_2 cell_9_3) true))
(assert
 (and (distinct cell_7_4 cell_7_5 cell_7_6 cell_8_4 cell_8_5 cell_8_6 cell_9_4 cell_9_5 cell_9_6) true))
(assert
 (and (distinct cell_7_7 cell_7_8 cell_7_9 cell_8_7 cell_8_8 cell_8_9 cell_9_7 cell_9_8 cell_9_9) true))
(assert
 (let (($x2472 (and (distinct cell_5_9 cell_6_8 cell_7_7 cell_8_6) true)))
 (let (($x1591 (and (distinct cell_2_9 cell_3_8 cell_4_7 cell_5_6 cell_6_5 cell_7_4 cell_8_3 cell_9_2) true)))
 (let (($x3370 (and (distinct cell_1_8 cell_2_7 cell_3_6 cell_4_5 cell_5_4 cell_6_3 cell_7_2 cell_8_1) true)))
 (let (($x31 (and (distinct cell_1_5 cell_2_4 cell_3_3 cell_4_2) true)))
 (let (($x6364 (and (distinct cell_5_1 cell_6_2 cell_7_3 cell_8_4) true)))
 (let (($x1274 (and (distinct cell_2_1 cell_3_2 cell_4_3 cell_5_4 cell_6_5 cell_7_6 cell_8_7 cell_9_8) true)))
 (let (($x3261 (and (distinct cell_1_2 cell_2_3 cell_3_4 cell_4_5 cell_5_6 cell_6_7 cell_7_8 cell_8_9) true)))
 (let (($x1280 (and (distinct cell_1_5 cell_2_6 cell_3_7 cell_4_8) true)))
 (and $x1280 $x3261 $x1274 $x6364 $x31 $x3370 $x1591 $x2472))))))))))
(assert
 (and (distinct cell_4_8 3) true))
(check-sat)
